c *********************************
c * Circuit generated by BenCGen
c *
c * CarrySelectAdder_55_55_55_InOut_G4T
c *
c * Ports with 1 gate(s): 93
c * Ports with 2 gate(s): 749
c * Ports with 3 gate(s): 2
c * Ports with 4 gate(s): 24
c * Total gates: 868
c *********************************
p cnf 978 2773
1 168 0
-1 -168 0
1 -167 0
168 -167 0
-1 -168 167 0
167 185 0
-167 -185 0
1 56 -171 0
-1 56 171 0
1 -56 171 0
-1 -56 -171 0
171 167 -111 0
-171 167 111 0
171 -167 111 0
-171 -167 -111 0
167 -172 0
171 -172 0
-167 -171 172 0
56 -173 0
1 -173 0
-56 -1 173 0
-172 170 0
-173 170 0
172 173 -170 0
2 57 -175 0
-2 57 175 0
2 -57 175 0
-2 -57 -175 0
175 170 -112 0
-175 170 112 0
175 -170 112 0
-175 -170 -112 0
170 -176 0
175 -176 0
-170 -175 176 0
57 -177 0
2 -177 0
-57 -2 177 0
-176 174 0
-177 174 0
176 177 -174 0
3 58 -179 0
-3 58 179 0
3 -58 179 0
-3 -58 -179 0
179 174 -113 0
-179 174 113 0
179 -174 113 0
-179 -174 -113 0
174 -180 0
179 -180 0
-174 -179 180 0
58 -181 0
3 -181 0
-58 -3 181 0
-180 178 0
-181 178 0
180 181 -178 0
4 59 -182 0
-4 59 182 0
4 -59 182 0
-4 -59 -182 0
182 178 -114 0
-182 178 114 0
182 -178 114 0
-182 -178 -114 0
178 -183 0
182 -183 0
-178 -182 183 0
59 -184 0
4 -184 0
-59 -4 184 0
-183 169 0
-184 169 0
183 184 -169 0
5 60 -196 0
-5 60 196 0
5 -60 196 0
-5 -60 -196 0
196 167 -186 0
-196 167 186 0
196 -167 186 0
-196 -167 -186 0
167 -197 0
196 -197 0
-167 -196 197 0
60 -198 0
5 -198 0
-60 -5 198 0
-197 195 0
-198 195 0
197 198 -195 0
6 61 -200 0
-6 61 200 0
6 -61 200 0
-6 -61 -200 0
200 195 -187 0
-200 195 187 0
200 -195 187 0
-200 -195 -187 0
195 -201 0
200 -201 0
-195 -200 201 0
61 -202 0
6 -202 0
-61 -6 202 0
-201 199 0
-202 199 0
201 202 -199 0
7 62 -204 0
-7 62 204 0
7 -62 204 0
-7 -62 -204 0
204 199 -188 0
-204 199 188 0
204 -199 188 0
-204 -199 -188 0
199 -205 0
204 -205 0
-199 -204 205 0
62 -206 0
7 -206 0
-62 -7 206 0
-205 203 0
-206 203 0
205 206 -203 0
8 63 -207 0
-8 63 207 0
8 -63 207 0
-8 -63 -207 0
207 203 -189 0
-207 203 189 0
207 -203 189 0
-207 -203 -189 0
203 -208 0
207 -208 0
-203 -207 208 0
63 -209 0
8 -209 0
-63 -8 209 0
-208 194 0
-209 194 0
208 209 -194 0
196 -210 0
200 -210 0
204 -210 0
207 -210 0
-196 -200 -204 -207 210 0
209 -211 0
-209 211 0
5 60 -214 0
-5 60 214 0
5 -60 214 0
-5 -60 -214 0
214 185 -190 0
-214 185 190 0
214 -185 190 0
-214 -185 -190 0
185 -215 0
214 -215 0
-185 -214 215 0
60 -216 0
5 -216 0
-60 -5 216 0
-215 213 0
-216 213 0
215 216 -213 0
6 61 -218 0
-6 61 218 0
6 -61 218 0
-6 -61 -218 0
218 213 -191 0
-218 213 191 0
218 -213 191 0
-218 -213 -191 0
213 -219 0
218 -219 0
-213 -218 219 0
61 -220 0
6 -220 0
-61 -6 220 0
-219 217 0
-220 217 0
219 220 -217 0
7 62 -222 0
-7 62 222 0
7 -62 222 0
-7 -62 -222 0
222 217 -192 0
-222 217 192 0
222 -217 192 0
-222 -217 -192 0
217 -223 0
222 -223 0
-217 -222 223 0
62 -224 0
7 -224 0
-62 -7 224 0
-223 221 0
-224 221 0
223 224 -221 0
8 63 -225 0
-8 63 225 0
8 -63 225 0
-8 -63 -225 0
225 221 -193 0
-225 221 193 0
225 -221 193 0
-225 -221 -193 0
221 -226 0
225 -226 0
-221 -225 226 0
63 -227 0
8 -227 0
-63 -8 227 0
-226 212 0
-227 212 0
226 227 -212 0
214 -228 0
218 -228 0
222 -228 0
225 -228 0
-214 -218 -222 -225 228 0
227 -229 0
-227 229 0
9 64 -258 0
-9 64 258 0
9 -64 258 0
-9 -64 -258 0
258 167 -248 0
-258 167 248 0
258 -167 248 0
-258 -167 -248 0
167 -259 0
258 -259 0
-167 -258 259 0
64 -260 0
9 -260 0
-64 -9 260 0
-259 257 0
-260 257 0
259 260 -257 0
10 65 -262 0
-10 65 262 0
10 -65 262 0
-10 -65 -262 0
262 257 -249 0
-262 257 249 0
262 -257 249 0
-262 -257 -249 0
257 -263 0
262 -263 0
-257 -262 263 0
65 -264 0
10 -264 0
-65 -10 264 0
-263 261 0
-264 261 0
263 264 -261 0
11 66 -266 0
-11 66 266 0
11 -66 266 0
-11 -66 -266 0
266 261 -250 0
-266 261 250 0
266 -261 250 0
-266 -261 -250 0
261 -267 0
266 -267 0
-261 -266 267 0
66 -268 0
11 -268 0
-66 -11 268 0
-267 265 0
-268 265 0
267 268 -265 0
12 67 -269 0
-12 67 269 0
12 -67 269 0
-12 -67 -269 0
269 265 -251 0
-269 265 251 0
269 -265 251 0
-269 -265 -251 0
265 -270 0
269 -270 0
-265 -269 270 0
67 -271 0
12 -271 0
-67 -12 271 0
-270 256 0
-271 256 0
270 271 -256 0
258 -272 0
262 -272 0
266 -272 0
269 -272 0
-258 -262 -266 -269 272 0
271 -273 0
-271 273 0
9 64 -276 0
-9 64 276 0
9 -64 276 0
-9 -64 -276 0
276 185 -252 0
-276 185 252 0
276 -185 252 0
-276 -185 -252 0
185 -277 0
276 -277 0
-185 -276 277 0
64 -278 0
9 -278 0
-64 -9 278 0
-277 275 0
-278 275 0
277 278 -275 0
10 65 -280 0
-10 65 280 0
10 -65 280 0
-10 -65 -280 0
280 275 -253 0
-280 275 253 0
280 -275 253 0
-280 -275 -253 0
275 -281 0
280 -281 0
-275 -280 281 0
65 -282 0
10 -282 0
-65 -10 282 0
-281 279 0
-282 279 0
281 282 -279 0
11 66 -284 0
-11 66 284 0
11 -66 284 0
-11 -66 -284 0
284 279 -254 0
-284 279 254 0
284 -279 254 0
-284 -279 -254 0
279 -285 0
284 -285 0
-279 -284 285 0
66 -286 0
11 -286 0
-66 -11 286 0
-285 283 0
-286 283 0
285 286 -283 0
12 67 -287 0
-12 67 287 0
12 -67 287 0
-12 -67 -287 0
287 283 -255 0
-287 283 255 0
287 -283 255 0
-287 -283 -255 0
283 -288 0
287 -288 0
-283 -287 288 0
67 -289 0
12 -289 0
-67 -12 289 0
-288 274 0
-289 274 0
288 289 -274 0
276 -290 0
280 -290 0
284 -290 0
287 -290 0
-276 -280 -284 -287 290 0
289 -291 0
-289 291 0
13 68 -320 0
-13 68 320 0
13 -68 320 0
-13 -68 -320 0
320 167 -310 0
-320 167 310 0
320 -167 310 0
-320 -167 -310 0
167 -321 0
320 -321 0
-167 -320 321 0
68 -322 0
13 -322 0
-68 -13 322 0
-321 319 0
-322 319 0
321 322 -319 0
14 69 -324 0
-14 69 324 0
14 -69 324 0
-14 -69 -324 0
324 319 -311 0
-324 319 311 0
324 -319 311 0
-324 -319 -311 0
319 -325 0
324 -325 0
-319 -324 325 0
69 -326 0
14 -326 0
-69 -14 326 0
-325 323 0
-326 323 0
325 326 -323 0
15 70 -328 0
-15 70 328 0
15 -70 328 0
-15 -70 -328 0
328 323 -312 0
-328 323 312 0
328 -323 312 0
-328 -323 -312 0
323 -329 0
328 -329 0
-323 -328 329 0
70 -330 0
15 -330 0
-70 -15 330 0
-329 327 0
-330 327 0
329 330 -327 0
16 71 -331 0
-16 71 331 0
16 -71 331 0
-16 -71 -331 0
331 327 -313 0
-331 327 313 0
331 -327 313 0
-331 -327 -313 0
327 -332 0
331 -332 0
-327 -331 332 0
71 -333 0
16 -333 0
-71 -16 333 0
-332 318 0
-333 318 0
332 333 -318 0
320 -334 0
324 -334 0
328 -334 0
331 -334 0
-320 -324 -328 -331 334 0
333 -335 0
-333 335 0
13 68 -338 0
-13 68 338 0
13 -68 338 0
-13 -68 -338 0
338 185 -314 0
-338 185 314 0
338 -185 314 0
-338 -185 -314 0
185 -339 0
338 -339 0
-185 -338 339 0
68 -340 0
13 -340 0
-68 -13 340 0
-339 337 0
-340 337 0
339 340 -337 0
14 69 -342 0
-14 69 342 0
14 -69 342 0
-14 -69 -342 0
342 337 -315 0
-342 337 315 0
342 -337 315 0
-342 -337 -315 0
337 -343 0
342 -343 0
-337 -342 343 0
69 -344 0
14 -344 0
-69 -14 344 0
-343 341 0
-344 341 0
343 344 -341 0
15 70 -346 0
-15 70 346 0
15 -70 346 0
-15 -70 -346 0
346 341 -316 0
-346 341 316 0
346 -341 316 0
-346 -341 -316 0
341 -347 0
346 -347 0
-341 -346 347 0
70 -348 0
15 -348 0
-70 -15 348 0
-347 345 0
-348 345 0
347 348 -345 0
16 71 -349 0
-16 71 349 0
16 -71 349 0
-16 -71 -349 0
349 345 -317 0
-349 345 317 0
349 -345 317 0
-349 -345 -317 0
345 -350 0
349 -350 0
-345 -349 350 0
71 -351 0
16 -351 0
-71 -16 351 0
-350 336 0
-351 336 0
350 351 -336 0
338 -352 0
342 -352 0
346 -352 0
349 -352 0
-338 -342 -346 -349 352 0
351 -353 0
-351 353 0
17 72 -382 0
-17 72 382 0
17 -72 382 0
-17 -72 -382 0
382 167 -372 0
-382 167 372 0
382 -167 372 0
-382 -167 -372 0
167 -383 0
382 -383 0
-167 -382 383 0
72 -384 0
17 -384 0
-72 -17 384 0
-383 381 0
-384 381 0
383 384 -381 0
18 73 -386 0
-18 73 386 0
18 -73 386 0
-18 -73 -386 0
386 381 -373 0
-386 381 373 0
386 -381 373 0
-386 -381 -373 0
381 -387 0
386 -387 0
-381 -386 387 0
73 -388 0
18 -388 0
-73 -18 388 0
-387 385 0
-388 385 0
387 388 -385 0
19 74 -390 0
-19 74 390 0
19 -74 390 0
-19 -74 -390 0
390 385 -374 0
-390 385 374 0
390 -385 374 0
-390 -385 -374 0
385 -391 0
390 -391 0
-385 -390 391 0
74 -392 0
19 -392 0
-74 -19 392 0
-391 389 0
-392 389 0
391 392 -389 0
20 75 -393 0
-20 75 393 0
20 -75 393 0
-20 -75 -393 0
393 389 -375 0
-393 389 375 0
393 -389 375 0
-393 -389 -375 0
389 -394 0
393 -394 0
-389 -393 394 0
75 -395 0
20 -395 0
-75 -20 395 0
-394 380 0
-395 380 0
394 395 -380 0
382 -396 0
386 -396 0
390 -396 0
393 -396 0
-382 -386 -390 -393 396 0
395 -397 0
-395 397 0
17 72 -400 0
-17 72 400 0
17 -72 400 0
-17 -72 -400 0
400 185 -376 0
-400 185 376 0
400 -185 376 0
-400 -185 -376 0
185 -401 0
400 -401 0
-185 -400 401 0
72 -402 0
17 -402 0
-72 -17 402 0
-401 399 0
-402 399 0
401 402 -399 0
18 73 -404 0
-18 73 404 0
18 -73 404 0
-18 -73 -404 0
404 399 -377 0
-404 399 377 0
404 -399 377 0
-404 -399 -377 0
399 -405 0
404 -405 0
-399 -404 405 0
73 -406 0
18 -406 0
-73 -18 406 0
-405 403 0
-406 403 0
405 406 -403 0
19 74 -408 0
-19 74 408 0
19 -74 408 0
-19 -74 -408 0
408 403 -378 0
-408 403 378 0
408 -403 378 0
-408 -403 -378 0
403 -409 0
408 -409 0
-403 -408 409 0
74 -410 0
19 -410 0
-74 -19 410 0
-409 407 0
-410 407 0
409 410 -407 0
20 75 -411 0
-20 75 411 0
20 -75 411 0
-20 -75 -411 0
411 407 -379 0
-411 407 379 0
411 -407 379 0
-411 -407 -379 0
407 -412 0
411 -412 0
-407 -411 412 0
75 -413 0
20 -413 0
-75 -20 413 0
-412 398 0
-413 398 0
412 413 -398 0
400 -414 0
404 -414 0
408 -414 0
411 -414 0
-400 -404 -408 -411 414 0
413 -415 0
-413 415 0
21 76 -444 0
-21 76 444 0
21 -76 444 0
-21 -76 -444 0
444 167 -434 0
-444 167 434 0
444 -167 434 0
-444 -167 -434 0
167 -445 0
444 -445 0
-167 -444 445 0
76 -446 0
21 -446 0
-76 -21 446 0
-445 443 0
-446 443 0
445 446 -443 0
22 77 -448 0
-22 77 448 0
22 -77 448 0
-22 -77 -448 0
448 443 -435 0
-448 443 435 0
448 -443 435 0
-448 -443 -435 0
443 -449 0
448 -449 0
-443 -448 449 0
77 -450 0
22 -450 0
-77 -22 450 0
-449 447 0
-450 447 0
449 450 -447 0
23 78 -452 0
-23 78 452 0
23 -78 452 0
-23 -78 -452 0
452 447 -436 0
-452 447 436 0
452 -447 436 0
-452 -447 -436 0
447 -453 0
452 -453 0
-447 -452 453 0
78 -454 0
23 -454 0
-78 -23 454 0
-453 451 0
-454 451 0
453 454 -451 0
24 79 -455 0
-24 79 455 0
24 -79 455 0
-24 -79 -455 0
455 451 -437 0
-455 451 437 0
455 -451 437 0
-455 -451 -437 0
451 -456 0
455 -456 0
-451 -455 456 0
79 -457 0
24 -457 0
-79 -24 457 0
-456 442 0
-457 442 0
456 457 -442 0
444 -458 0
448 -458 0
452 -458 0
455 -458 0
-444 -448 -452 -455 458 0
457 -459 0
-457 459 0
21 76 -462 0
-21 76 462 0
21 -76 462 0
-21 -76 -462 0
462 185 -438 0
-462 185 438 0
462 -185 438 0
-462 -185 -438 0
185 -463 0
462 -463 0
-185 -462 463 0
76 -464 0
21 -464 0
-76 -21 464 0
-463 461 0
-464 461 0
463 464 -461 0
22 77 -466 0
-22 77 466 0
22 -77 466 0
-22 -77 -466 0
466 461 -439 0
-466 461 439 0
466 -461 439 0
-466 -461 -439 0
461 -467 0
466 -467 0
-461 -466 467 0
77 -468 0
22 -468 0
-77 -22 468 0
-467 465 0
-468 465 0
467 468 -465 0
23 78 -470 0
-23 78 470 0
23 -78 470 0
-23 -78 -470 0
470 465 -440 0
-470 465 440 0
470 -465 440 0
-470 -465 -440 0
465 -471 0
470 -471 0
-465 -470 471 0
78 -472 0
23 -472 0
-78 -23 472 0
-471 469 0
-472 469 0
471 472 -469 0
24 79 -473 0
-24 79 473 0
24 -79 473 0
-24 -79 -473 0
473 469 -441 0
-473 469 441 0
473 -469 441 0
-473 -469 -441 0
469 -474 0
473 -474 0
-469 -473 474 0
79 -475 0
24 -475 0
-79 -24 475 0
-474 460 0
-475 460 0
474 475 -460 0
462 -476 0
466 -476 0
470 -476 0
473 -476 0
-462 -466 -470 -473 476 0
475 -477 0
-475 477 0
25 80 -506 0
-25 80 506 0
25 -80 506 0
-25 -80 -506 0
506 167 -496 0
-506 167 496 0
506 -167 496 0
-506 -167 -496 0
167 -507 0
506 -507 0
-167 -506 507 0
80 -508 0
25 -508 0
-80 -25 508 0
-507 505 0
-508 505 0
507 508 -505 0
26 81 -510 0
-26 81 510 0
26 -81 510 0
-26 -81 -510 0
510 505 -497 0
-510 505 497 0
510 -505 497 0
-510 -505 -497 0
505 -511 0
510 -511 0
-505 -510 511 0
81 -512 0
26 -512 0
-81 -26 512 0
-511 509 0
-512 509 0
511 512 -509 0
27 82 -514 0
-27 82 514 0
27 -82 514 0
-27 -82 -514 0
514 509 -498 0
-514 509 498 0
514 -509 498 0
-514 -509 -498 0
509 -515 0
514 -515 0
-509 -514 515 0
82 -516 0
27 -516 0
-82 -27 516 0
-515 513 0
-516 513 0
515 516 -513 0
28 83 -517 0
-28 83 517 0
28 -83 517 0
-28 -83 -517 0
517 513 -499 0
-517 513 499 0
517 -513 499 0
-517 -513 -499 0
513 -518 0
517 -518 0
-513 -517 518 0
83 -519 0
28 -519 0
-83 -28 519 0
-518 504 0
-519 504 0
518 519 -504 0
506 -520 0
510 -520 0
514 -520 0
517 -520 0
-506 -510 -514 -517 520 0
519 -521 0
-519 521 0
25 80 -524 0
-25 80 524 0
25 -80 524 0
-25 -80 -524 0
524 185 -500 0
-524 185 500 0
524 -185 500 0
-524 -185 -500 0
185 -525 0
524 -525 0
-185 -524 525 0
80 -526 0
25 -526 0
-80 -25 526 0
-525 523 0
-526 523 0
525 526 -523 0
26 81 -528 0
-26 81 528 0
26 -81 528 0
-26 -81 -528 0
528 523 -501 0
-528 523 501 0
528 -523 501 0
-528 -523 -501 0
523 -529 0
528 -529 0
-523 -528 529 0
81 -530 0
26 -530 0
-81 -26 530 0
-529 527 0
-530 527 0
529 530 -527 0
27 82 -532 0
-27 82 532 0
27 -82 532 0
-27 -82 -532 0
532 527 -502 0
-532 527 502 0
532 -527 502 0
-532 -527 -502 0
527 -533 0
532 -533 0
-527 -532 533 0
82 -534 0
27 -534 0
-82 -27 534 0
-533 531 0
-534 531 0
533 534 -531 0
28 83 -535 0
-28 83 535 0
28 -83 535 0
-28 -83 -535 0
535 531 -503 0
-535 531 503 0
535 -531 503 0
-535 -531 -503 0
531 -536 0
535 -536 0
-531 -535 536 0
83 -537 0
28 -537 0
-83 -28 537 0
-536 522 0
-537 522 0
536 537 -522 0
524 -538 0
528 -538 0
532 -538 0
535 -538 0
-524 -528 -532 -535 538 0
537 -539 0
-537 539 0
29 84 -568 0
-29 84 568 0
29 -84 568 0
-29 -84 -568 0
568 167 -558 0
-568 167 558 0
568 -167 558 0
-568 -167 -558 0
167 -569 0
568 -569 0
-167 -568 569 0
84 -570 0
29 -570 0
-84 -29 570 0
-569 567 0
-570 567 0
569 570 -567 0
30 85 -572 0
-30 85 572 0
30 -85 572 0
-30 -85 -572 0
572 567 -559 0
-572 567 559 0
572 -567 559 0
-572 -567 -559 0
567 -573 0
572 -573 0
-567 -572 573 0
85 -574 0
30 -574 0
-85 -30 574 0
-573 571 0
-574 571 0
573 574 -571 0
31 86 -576 0
-31 86 576 0
31 -86 576 0
-31 -86 -576 0
576 571 -560 0
-576 571 560 0
576 -571 560 0
-576 -571 -560 0
571 -577 0
576 -577 0
-571 -576 577 0
86 -578 0
31 -578 0
-86 -31 578 0
-577 575 0
-578 575 0
577 578 -575 0
32 87 -579 0
-32 87 579 0
32 -87 579 0
-32 -87 -579 0
579 575 -561 0
-579 575 561 0
579 -575 561 0
-579 -575 -561 0
575 -580 0
579 -580 0
-575 -579 580 0
87 -581 0
32 -581 0
-87 -32 581 0
-580 566 0
-581 566 0
580 581 -566 0
568 -582 0
572 -582 0
576 -582 0
579 -582 0
-568 -572 -576 -579 582 0
581 -583 0
-581 583 0
29 84 -586 0
-29 84 586 0
29 -84 586 0
-29 -84 -586 0
586 185 -562 0
-586 185 562 0
586 -185 562 0
-586 -185 -562 0
185 -587 0
586 -587 0
-185 -586 587 0
84 -588 0
29 -588 0
-84 -29 588 0
-587 585 0
-588 585 0
587 588 -585 0
30 85 -590 0
-30 85 590 0
30 -85 590 0
-30 -85 -590 0
590 585 -563 0
-590 585 563 0
590 -585 563 0
-590 -585 -563 0
585 -591 0
590 -591 0
-585 -590 591 0
85 -592 0
30 -592 0
-85 -30 592 0
-591 589 0
-592 589 0
591 592 -589 0
31 86 -594 0
-31 86 594 0
31 -86 594 0
-31 -86 -594 0
594 589 -564 0
-594 589 564 0
594 -589 564 0
-594 -589 -564 0
589 -595 0
594 -595 0
-589 -594 595 0
86 -596 0
31 -596 0
-86 -31 596 0
-595 593 0
-596 593 0
595 596 -593 0
32 87 -597 0
-32 87 597 0
32 -87 597 0
-32 -87 -597 0
597 593 -565 0
-597 593 565 0
597 -593 565 0
-597 -593 -565 0
593 -598 0
597 -598 0
-593 -597 598 0
87 -599 0
32 -599 0
-87 -32 599 0
-598 584 0
-599 584 0
598 599 -584 0
586 -600 0
590 -600 0
594 -600 0
597 -600 0
-586 -590 -594 -597 600 0
599 -601 0
-599 601 0
33 88 -630 0
-33 88 630 0
33 -88 630 0
-33 -88 -630 0
630 167 -620 0
-630 167 620 0
630 -167 620 0
-630 -167 -620 0
167 -631 0
630 -631 0
-167 -630 631 0
88 -632 0
33 -632 0
-88 -33 632 0
-631 629 0
-632 629 0
631 632 -629 0
34 89 -634 0
-34 89 634 0
34 -89 634 0
-34 -89 -634 0
634 629 -621 0
-634 629 621 0
634 -629 621 0
-634 -629 -621 0
629 -635 0
634 -635 0
-629 -634 635 0
89 -636 0
34 -636 0
-89 -34 636 0
-635 633 0
-636 633 0
635 636 -633 0
35 90 -638 0
-35 90 638 0
35 -90 638 0
-35 -90 -638 0
638 633 -622 0
-638 633 622 0
638 -633 622 0
-638 -633 -622 0
633 -639 0
638 -639 0
-633 -638 639 0
90 -640 0
35 -640 0
-90 -35 640 0
-639 637 0
-640 637 0
639 640 -637 0
36 91 -641 0
-36 91 641 0
36 -91 641 0
-36 -91 -641 0
641 637 -623 0
-641 637 623 0
641 -637 623 0
-641 -637 -623 0
637 -642 0
641 -642 0
-637 -641 642 0
91 -643 0
36 -643 0
-91 -36 643 0
-642 628 0
-643 628 0
642 643 -628 0
630 -644 0
634 -644 0
638 -644 0
641 -644 0
-630 -634 -638 -641 644 0
643 -645 0
-643 645 0
33 88 -648 0
-33 88 648 0
33 -88 648 0
-33 -88 -648 0
648 185 -624 0
-648 185 624 0
648 -185 624 0
-648 -185 -624 0
185 -649 0
648 -649 0
-185 -648 649 0
88 -650 0
33 -650 0
-88 -33 650 0
-649 647 0
-650 647 0
649 650 -647 0
34 89 -652 0
-34 89 652 0
34 -89 652 0
-34 -89 -652 0
652 647 -625 0
-652 647 625 0
652 -647 625 0
-652 -647 -625 0
647 -653 0
652 -653 0
-647 -652 653 0
89 -654 0
34 -654 0
-89 -34 654 0
-653 651 0
-654 651 0
653 654 -651 0
35 90 -656 0
-35 90 656 0
35 -90 656 0
-35 -90 -656 0
656 651 -626 0
-656 651 626 0
656 -651 626 0
-656 -651 -626 0
651 -657 0
656 -657 0
-651 -656 657 0
90 -658 0
35 -658 0
-90 -35 658 0
-657 655 0
-658 655 0
657 658 -655 0
36 91 -659 0
-36 91 659 0
36 -91 659 0
-36 -91 -659 0
659 655 -627 0
-659 655 627 0
659 -655 627 0
-659 -655 -627 0
655 -660 0
659 -660 0
-655 -659 660 0
91 -661 0
36 -661 0
-91 -36 661 0
-660 646 0
-661 646 0
660 661 -646 0
648 -662 0
652 -662 0
656 -662 0
659 -662 0
-648 -652 -656 -659 662 0
661 -663 0
-661 663 0
37 92 -692 0
-37 92 692 0
37 -92 692 0
-37 -92 -692 0
692 167 -682 0
-692 167 682 0
692 -167 682 0
-692 -167 -682 0
167 -693 0
692 -693 0
-167 -692 693 0
92 -694 0
37 -694 0
-92 -37 694 0
-693 691 0
-694 691 0
693 694 -691 0
38 93 -696 0
-38 93 696 0
38 -93 696 0
-38 -93 -696 0
696 691 -683 0
-696 691 683 0
696 -691 683 0
-696 -691 -683 0
691 -697 0
696 -697 0
-691 -696 697 0
93 -698 0
38 -698 0
-93 -38 698 0
-697 695 0
-698 695 0
697 698 -695 0
39 94 -700 0
-39 94 700 0
39 -94 700 0
-39 -94 -700 0
700 695 -684 0
-700 695 684 0
700 -695 684 0
-700 -695 -684 0
695 -701 0
700 -701 0
-695 -700 701 0
94 -702 0
39 -702 0
-94 -39 702 0
-701 699 0
-702 699 0
701 702 -699 0
40 95 -703 0
-40 95 703 0
40 -95 703 0
-40 -95 -703 0
703 699 -685 0
-703 699 685 0
703 -699 685 0
-703 -699 -685 0
699 -704 0
703 -704 0
-699 -703 704 0
95 -705 0
40 -705 0
-95 -40 705 0
-704 690 0
-705 690 0
704 705 -690 0
692 -706 0
696 -706 0
700 -706 0
703 -706 0
-692 -696 -700 -703 706 0
705 -707 0
-705 707 0
37 92 -710 0
-37 92 710 0
37 -92 710 0
-37 -92 -710 0
710 185 -686 0
-710 185 686 0
710 -185 686 0
-710 -185 -686 0
185 -711 0
710 -711 0
-185 -710 711 0
92 -712 0
37 -712 0
-92 -37 712 0
-711 709 0
-712 709 0
711 712 -709 0
38 93 -714 0
-38 93 714 0
38 -93 714 0
-38 -93 -714 0
714 709 -687 0
-714 709 687 0
714 -709 687 0
-714 -709 -687 0
709 -715 0
714 -715 0
-709 -714 715 0
93 -716 0
38 -716 0
-93 -38 716 0
-715 713 0
-716 713 0
715 716 -713 0
39 94 -718 0
-39 94 718 0
39 -94 718 0
-39 -94 -718 0
718 713 -688 0
-718 713 688 0
718 -713 688 0
-718 -713 -688 0
713 -719 0
718 -719 0
-713 -718 719 0
94 -720 0
39 -720 0
-94 -39 720 0
-719 717 0
-720 717 0
719 720 -717 0
40 95 -721 0
-40 95 721 0
40 -95 721 0
-40 -95 -721 0
721 717 -689 0
-721 717 689 0
721 -717 689 0
-721 -717 -689 0
717 -722 0
721 -722 0
-717 -721 722 0
95 -723 0
40 -723 0
-95 -40 723 0
-722 708 0
-723 708 0
722 723 -708 0
710 -724 0
714 -724 0
718 -724 0
721 -724 0
-710 -714 -718 -721 724 0
723 -725 0
-723 725 0
41 96 -754 0
-41 96 754 0
41 -96 754 0
-41 -96 -754 0
754 167 -744 0
-754 167 744 0
754 -167 744 0
-754 -167 -744 0
167 -755 0
754 -755 0
-167 -754 755 0
96 -756 0
41 -756 0
-96 -41 756 0
-755 753 0
-756 753 0
755 756 -753 0
42 97 -758 0
-42 97 758 0
42 -97 758 0
-42 -97 -758 0
758 753 -745 0
-758 753 745 0
758 -753 745 0
-758 -753 -745 0
753 -759 0
758 -759 0
-753 -758 759 0
97 -760 0
42 -760 0
-97 -42 760 0
-759 757 0
-760 757 0
759 760 -757 0
43 98 -762 0
-43 98 762 0
43 -98 762 0
-43 -98 -762 0
762 757 -746 0
-762 757 746 0
762 -757 746 0
-762 -757 -746 0
757 -763 0
762 -763 0
-757 -762 763 0
98 -764 0
43 -764 0
-98 -43 764 0
-763 761 0
-764 761 0
763 764 -761 0
44 99 -765 0
-44 99 765 0
44 -99 765 0
-44 -99 -765 0
765 761 -747 0
-765 761 747 0
765 -761 747 0
-765 -761 -747 0
761 -766 0
765 -766 0
-761 -765 766 0
99 -767 0
44 -767 0
-99 -44 767 0
-766 752 0
-767 752 0
766 767 -752 0
754 -768 0
758 -768 0
762 -768 0
765 -768 0
-754 -758 -762 -765 768 0
767 -769 0
-767 769 0
41 96 -772 0
-41 96 772 0
41 -96 772 0
-41 -96 -772 0
772 185 -748 0
-772 185 748 0
772 -185 748 0
-772 -185 -748 0
185 -773 0
772 -773 0
-185 -772 773 0
96 -774 0
41 -774 0
-96 -41 774 0
-773 771 0
-774 771 0
773 774 -771 0
42 97 -776 0
-42 97 776 0
42 -97 776 0
-42 -97 -776 0
776 771 -749 0
-776 771 749 0
776 -771 749 0
-776 -771 -749 0
771 -777 0
776 -777 0
-771 -776 777 0
97 -778 0
42 -778 0
-97 -42 778 0
-777 775 0
-778 775 0
777 778 -775 0
43 98 -780 0
-43 98 780 0
43 -98 780 0
-43 -98 -780 0
780 775 -750 0
-780 775 750 0
780 -775 750 0
-780 -775 -750 0
775 -781 0
780 -781 0
-775 -780 781 0
98 -782 0
43 -782 0
-98 -43 782 0
-781 779 0
-782 779 0
781 782 -779 0
44 99 -783 0
-44 99 783 0
44 -99 783 0
-44 -99 -783 0
783 779 -751 0
-783 779 751 0
783 -779 751 0
-783 -779 -751 0
779 -784 0
783 -784 0
-779 -783 784 0
99 -785 0
44 -785 0
-99 -44 785 0
-784 770 0
-785 770 0
784 785 -770 0
772 -786 0
776 -786 0
780 -786 0
783 -786 0
-772 -776 -780 -783 786 0
785 -787 0
-785 787 0
45 100 -816 0
-45 100 816 0
45 -100 816 0
-45 -100 -816 0
816 167 -806 0
-816 167 806 0
816 -167 806 0
-816 -167 -806 0
167 -817 0
816 -817 0
-167 -816 817 0
100 -818 0
45 -818 0
-100 -45 818 0
-817 815 0
-818 815 0
817 818 -815 0
46 101 -820 0
-46 101 820 0
46 -101 820 0
-46 -101 -820 0
820 815 -807 0
-820 815 807 0
820 -815 807 0
-820 -815 -807 0
815 -821 0
820 -821 0
-815 -820 821 0
101 -822 0
46 -822 0
-101 -46 822 0
-821 819 0
-822 819 0
821 822 -819 0
47 102 -824 0
-47 102 824 0
47 -102 824 0
-47 -102 -824 0
824 819 -808 0
-824 819 808 0
824 -819 808 0
-824 -819 -808 0
819 -825 0
824 -825 0
-819 -824 825 0
102 -826 0
47 -826 0
-102 -47 826 0
-825 823 0
-826 823 0
825 826 -823 0
48 103 -827 0
-48 103 827 0
48 -103 827 0
-48 -103 -827 0
827 823 -809 0
-827 823 809 0
827 -823 809 0
-827 -823 -809 0
823 -828 0
827 -828 0
-823 -827 828 0
103 -829 0
48 -829 0
-103 -48 829 0
-828 814 0
-829 814 0
828 829 -814 0
816 -830 0
820 -830 0
824 -830 0
827 -830 0
-816 -820 -824 -827 830 0
829 -831 0
-829 831 0
45 100 -834 0
-45 100 834 0
45 -100 834 0
-45 -100 -834 0
834 185 -810 0
-834 185 810 0
834 -185 810 0
-834 -185 -810 0
185 -835 0
834 -835 0
-185 -834 835 0
100 -836 0
45 -836 0
-100 -45 836 0
-835 833 0
-836 833 0
835 836 -833 0
46 101 -838 0
-46 101 838 0
46 -101 838 0
-46 -101 -838 0
838 833 -811 0
-838 833 811 0
838 -833 811 0
-838 -833 -811 0
833 -839 0
838 -839 0
-833 -838 839 0
101 -840 0
46 -840 0
-101 -46 840 0
-839 837 0
-840 837 0
839 840 -837 0
47 102 -842 0
-47 102 842 0
47 -102 842 0
-47 -102 -842 0
842 837 -812 0
-842 837 812 0
842 -837 812 0
-842 -837 -812 0
837 -843 0
842 -843 0
-837 -842 843 0
102 -844 0
47 -844 0
-102 -47 844 0
-843 841 0
-844 841 0
843 844 -841 0
48 103 -845 0
-48 103 845 0
48 -103 845 0
-48 -103 -845 0
845 841 -813 0
-845 841 813 0
845 -841 813 0
-845 -841 -813 0
841 -846 0
845 -846 0
-841 -845 846 0
103 -847 0
48 -847 0
-103 -48 847 0
-846 832 0
-847 832 0
846 847 -832 0
834 -848 0
838 -848 0
842 -848 0
845 -848 0
-834 -838 -842 -845 848 0
847 -849 0
-847 849 0
49 104 -878 0
-49 104 878 0
49 -104 878 0
-49 -104 -878 0
878 167 -868 0
-878 167 868 0
878 -167 868 0
-878 -167 -868 0
167 -879 0
878 -879 0
-167 -878 879 0
104 -880 0
49 -880 0
-104 -49 880 0
-879 877 0
-880 877 0
879 880 -877 0
50 105 -882 0
-50 105 882 0
50 -105 882 0
-50 -105 -882 0
882 877 -869 0
-882 877 869 0
882 -877 869 0
-882 -877 -869 0
877 -883 0
882 -883 0
-877 -882 883 0
105 -884 0
50 -884 0
-105 -50 884 0
-883 881 0
-884 881 0
883 884 -881 0
51 106 -886 0
-51 106 886 0
51 -106 886 0
-51 -106 -886 0
886 881 -870 0
-886 881 870 0
886 -881 870 0
-886 -881 -870 0
881 -887 0
886 -887 0
-881 -886 887 0
106 -888 0
51 -888 0
-106 -51 888 0
-887 885 0
-888 885 0
887 888 -885 0
52 107 -889 0
-52 107 889 0
52 -107 889 0
-52 -107 -889 0
889 885 -871 0
-889 885 871 0
889 -885 871 0
-889 -885 -871 0
885 -890 0
889 -890 0
-885 -889 890 0
107 -891 0
52 -891 0
-107 -52 891 0
-890 876 0
-891 876 0
890 891 -876 0
878 -892 0
882 -892 0
886 -892 0
889 -892 0
-878 -882 -886 -889 892 0
891 -893 0
-891 893 0
49 104 -896 0
-49 104 896 0
49 -104 896 0
-49 -104 -896 0
896 185 -872 0
-896 185 872 0
896 -185 872 0
-896 -185 -872 0
185 -897 0
896 -897 0
-185 -896 897 0
104 -898 0
49 -898 0
-104 -49 898 0
-897 895 0
-898 895 0
897 898 -895 0
50 105 -900 0
-50 105 900 0
50 -105 900 0
-50 -105 -900 0
900 895 -873 0
-900 895 873 0
900 -895 873 0
-900 -895 -873 0
895 -901 0
900 -901 0
-895 -900 901 0
105 -902 0
50 -902 0
-105 -50 902 0
-901 899 0
-902 899 0
901 902 -899 0
51 106 -904 0
-51 106 904 0
51 -106 904 0
-51 -106 -904 0
904 899 -874 0
-904 899 874 0
904 -899 874 0
-904 -899 -874 0
899 -905 0
904 -905 0
-899 -904 905 0
106 -906 0
51 -906 0
-106 -51 906 0
-905 903 0
-906 903 0
905 906 -903 0
52 107 -907 0
-52 107 907 0
52 -107 907 0
-52 -107 -907 0
907 903 -875 0
-907 903 875 0
907 -903 875 0
-907 -903 -875 0
903 -908 0
907 -908 0
-903 -907 908 0
107 -909 0
52 -909 0
-107 -52 909 0
-908 894 0
-909 894 0
908 909 -894 0
896 -910 0
900 -910 0
904 -910 0
907 -910 0
-896 -900 -904 -907 910 0
909 -911 0
-909 911 0
53 108 -938 0
-53 108 938 0
53 -108 938 0
-53 -108 -938 0
938 167 -930 0
-938 167 930 0
938 -167 930 0
-938 -167 -930 0
167 -939 0
938 -939 0
-167 -938 939 0
108 -940 0
53 -940 0
-108 -53 940 0
-939 937 0
-940 937 0
939 940 -937 0
54 109 -942 0
-54 109 942 0
54 -109 942 0
-54 -109 -942 0
942 937 -931 0
-942 937 931 0
942 -937 931 0
-942 -937 -931 0
937 -943 0
942 -943 0
-937 -942 943 0
109 -944 0
54 -944 0
-109 -54 944 0
-943 941 0
-944 941 0
943 944 -941 0
55 110 -945 0
-55 110 945 0
55 -110 945 0
-55 -110 -945 0
945 941 -932 0
-945 941 932 0
945 -941 932 0
-945 -941 -932 0
941 -946 0
945 -946 0
-941 -945 946 0
110 -947 0
55 -947 0
-110 -55 947 0
-946 936 0
-947 936 0
946 947 -936 0
938 -948 0
942 -948 0
945 -948 0
-938 -942 -945 948 0
947 -949 0
-947 949 0
53 108 -952 0
-53 108 952 0
53 -108 952 0
-53 -108 -952 0
952 185 -933 0
-952 185 933 0
952 -185 933 0
-952 -185 -933 0
185 -953 0
952 -953 0
-185 -952 953 0
108 -954 0
53 -954 0
-108 -53 954 0
-953 951 0
-954 951 0
953 954 -951 0
54 109 -956 0
-54 109 956 0
54 -109 956 0
-54 -109 -956 0
956 951 -934 0
-956 951 934 0
956 -951 934 0
-956 -951 -934 0
951 -957 0
956 -957 0
-951 -956 957 0
109 -958 0
54 -958 0
-109 -54 958 0
-957 955 0
-958 955 0
957 958 -955 0
55 110 -959 0
-55 110 959 0
55 -110 959 0
-55 -110 -959 0
959 955 -935 0
-959 955 935 0
959 -955 935 0
-959 -955 -935 0
955 -960 0
959 -960 0
-955 -959 960 0
110 -961 0
55 -961 0
-110 -55 961 0
-960 950 0
-961 950 0
960 961 -950 0
952 -962 0
956 -962 0
959 -962 0
-952 -956 -959 962 0
961 -963 0
-961 963 0
169 231 0
-169 -231 0
231 -232 0
186 -232 0
-231 -186 232 0
169 -233 0
190 -233 0
-169 -190 233 0
-232 115 0
-233 115 0
232 233 -115 0
169 234 0
-169 -234 0
234 -235 0
187 -235 0
-234 -187 235 0
169 -236 0
191 -236 0
-169 -191 236 0
-235 116 0
-236 116 0
235 236 -116 0
169 237 0
-169 -237 0
237 -238 0
188 -238 0
-237 -188 238 0
169 -239 0
192 -239 0
-169 -192 239 0
-238 117 0
-239 117 0
238 239 -117 0
169 240 0
-169 -240 0
240 -241 0
189 -241 0
-240 -189 241 0
169 -242 0
193 -242 0
-169 -193 242 0
-241 118 0
-242 118 0
241 242 -118 0
169 243 0
-169 -243 0
243 -244 0
194 -244 0
-243 -194 244 0
169 -245 0
212 -245 0
-169 -212 245 0
-244 230 0
-245 230 0
244 245 -230 0
169 -246 0
228 -246 0
-169 -228 246 0
-246 247 0
-230 247 0
246 230 -247 0
247 293 0
-247 -293 0
293 -294 0
248 -294 0
-293 -248 294 0
247 -295 0
252 -295 0
-247 -252 295 0
-294 119 0
-295 119 0
294 295 -119 0
247 296 0
-247 -296 0
296 -297 0
249 -297 0
-296 -249 297 0
247 -298 0
253 -298 0
-247 -253 298 0
-297 120 0
-298 120 0
297 298 -120 0
247 299 0
-247 -299 0
299 -300 0
250 -300 0
-299 -250 300 0
247 -301 0
254 -301 0
-247 -254 301 0
-300 121 0
-301 121 0
300 301 -121 0
247 302 0
-247 -302 0
302 -303 0
251 -303 0
-302 -251 303 0
247 -304 0
255 -304 0
-247 -255 304 0
-303 122 0
-304 122 0
303 304 -122 0
247 305 0
-247 -305 0
305 -306 0
256 -306 0
-305 -256 306 0
247 -307 0
274 -307 0
-247 -274 307 0
-306 292 0
-307 292 0
306 307 -292 0
247 -308 0
290 -308 0
-247 -290 308 0
-308 309 0
-292 309 0
308 292 -309 0
309 355 0
-309 -355 0
355 -356 0
310 -356 0
-355 -310 356 0
309 -357 0
314 -357 0
-309 -314 357 0
-356 123 0
-357 123 0
356 357 -123 0
309 358 0
-309 -358 0
358 -359 0
311 -359 0
-358 -311 359 0
309 -360 0
315 -360 0
-309 -315 360 0
-359 124 0
-360 124 0
359 360 -124 0
309 361 0
-309 -361 0
361 -362 0
312 -362 0
-361 -312 362 0
309 -363 0
316 -363 0
-309 -316 363 0
-362 125 0
-363 125 0
362 363 -125 0
309 364 0
-309 -364 0
364 -365 0
313 -365 0
-364 -313 365 0
309 -366 0
317 -366 0
-309 -317 366 0
-365 126 0
-366 126 0
365 366 -126 0
309 367 0
-309 -367 0
367 -368 0
318 -368 0
-367 -318 368 0
309 -369 0
336 -369 0
-309 -336 369 0
-368 354 0
-369 354 0
368 369 -354 0
309 -370 0
352 -370 0
-309 -352 370 0
-370 371 0
-354 371 0
370 354 -371 0
371 417 0
-371 -417 0
417 -418 0
372 -418 0
-417 -372 418 0
371 -419 0
376 -419 0
-371 -376 419 0
-418 127 0
-419 127 0
418 419 -127 0
371 420 0
-371 -420 0
420 -421 0
373 -421 0
-420 -373 421 0
371 -422 0
377 -422 0
-371 -377 422 0
-421 128 0
-422 128 0
421 422 -128 0
371 423 0
-371 -423 0
423 -424 0
374 -424 0
-423 -374 424 0
371 -425 0
378 -425 0
-371 -378 425 0
-424 129 0
-425 129 0
424 425 -129 0
371 426 0
-371 -426 0
426 -427 0
375 -427 0
-426 -375 427 0
371 -428 0
379 -428 0
-371 -379 428 0
-427 130 0
-428 130 0
427 428 -130 0
371 429 0
-371 -429 0
429 -430 0
380 -430 0
-429 -380 430 0
371 -431 0
398 -431 0
-371 -398 431 0
-430 416 0
-431 416 0
430 431 -416 0
371 -432 0
414 -432 0
-371 -414 432 0
-432 433 0
-416 433 0
432 416 -433 0
433 479 0
-433 -479 0
479 -480 0
434 -480 0
-479 -434 480 0
433 -481 0
438 -481 0
-433 -438 481 0
-480 131 0
-481 131 0
480 481 -131 0
433 482 0
-433 -482 0
482 -483 0
435 -483 0
-482 -435 483 0
433 -484 0
439 -484 0
-433 -439 484 0
-483 132 0
-484 132 0
483 484 -132 0
433 485 0
-433 -485 0
485 -486 0
436 -486 0
-485 -436 486 0
433 -487 0
440 -487 0
-433 -440 487 0
-486 133 0
-487 133 0
486 487 -133 0
433 488 0
-433 -488 0
488 -489 0
437 -489 0
-488 -437 489 0
433 -490 0
441 -490 0
-433 -441 490 0
-489 134 0
-490 134 0
489 490 -134 0
433 491 0
-433 -491 0
491 -492 0
442 -492 0
-491 -442 492 0
433 -493 0
460 -493 0
-433 -460 493 0
-492 478 0
-493 478 0
492 493 -478 0
433 -494 0
476 -494 0
-433 -476 494 0
-494 495 0
-478 495 0
494 478 -495 0
495 541 0
-495 -541 0
541 -542 0
496 -542 0
-541 -496 542 0
495 -543 0
500 -543 0
-495 -500 543 0
-542 135 0
-543 135 0
542 543 -135 0
495 544 0
-495 -544 0
544 -545 0
497 -545 0
-544 -497 545 0
495 -546 0
501 -546 0
-495 -501 546 0
-545 136 0
-546 136 0
545 546 -136 0
495 547 0
-495 -547 0
547 -548 0
498 -548 0
-547 -498 548 0
495 -549 0
502 -549 0
-495 -502 549 0
-548 137 0
-549 137 0
548 549 -137 0
495 550 0
-495 -550 0
550 -551 0
499 -551 0
-550 -499 551 0
495 -552 0
503 -552 0
-495 -503 552 0
-551 138 0
-552 138 0
551 552 -138 0
495 553 0
-495 -553 0
553 -554 0
504 -554 0
-553 -504 554 0
495 -555 0
522 -555 0
-495 -522 555 0
-554 540 0
-555 540 0
554 555 -540 0
495 -556 0
538 -556 0
-495 -538 556 0
-556 557 0
-540 557 0
556 540 -557 0
557 603 0
-557 -603 0
603 -604 0
558 -604 0
-603 -558 604 0
557 -605 0
562 -605 0
-557 -562 605 0
-604 139 0
-605 139 0
604 605 -139 0
557 606 0
-557 -606 0
606 -607 0
559 -607 0
-606 -559 607 0
557 -608 0
563 -608 0
-557 -563 608 0
-607 140 0
-608 140 0
607 608 -140 0
557 609 0
-557 -609 0
609 -610 0
560 -610 0
-609 -560 610 0
557 -611 0
564 -611 0
-557 -564 611 0
-610 141 0
-611 141 0
610 611 -141 0
557 612 0
-557 -612 0
612 -613 0
561 -613 0
-612 -561 613 0
557 -614 0
565 -614 0
-557 -565 614 0
-613 142 0
-614 142 0
613 614 -142 0
557 615 0
-557 -615 0
615 -616 0
566 -616 0
-615 -566 616 0
557 -617 0
584 -617 0
-557 -584 617 0
-616 602 0
-617 602 0
616 617 -602 0
557 -618 0
600 -618 0
-557 -600 618 0
-618 619 0
-602 619 0
618 602 -619 0
619 665 0
-619 -665 0
665 -666 0
620 -666 0
-665 -620 666 0
619 -667 0
624 -667 0
-619 -624 667 0
-666 143 0
-667 143 0
666 667 -143 0
619 668 0
-619 -668 0
668 -669 0
621 -669 0
-668 -621 669 0
619 -670 0
625 -670 0
-619 -625 670 0
-669 144 0
-670 144 0
669 670 -144 0
619 671 0
-619 -671 0
671 -672 0
622 -672 0
-671 -622 672 0
619 -673 0
626 -673 0
-619 -626 673 0
-672 145 0
-673 145 0
672 673 -145 0
619 674 0
-619 -674 0
674 -675 0
623 -675 0
-674 -623 675 0
619 -676 0
627 -676 0
-619 -627 676 0
-675 146 0
-676 146 0
675 676 -146 0
619 677 0
-619 -677 0
677 -678 0
628 -678 0
-677 -628 678 0
619 -679 0
646 -679 0
-619 -646 679 0
-678 664 0
-679 664 0
678 679 -664 0
619 -680 0
662 -680 0
-619 -662 680 0
-680 681 0
-664 681 0
680 664 -681 0
681 727 0
-681 -727 0
727 -728 0
682 -728 0
-727 -682 728 0
681 -729 0
686 -729 0
-681 -686 729 0
-728 147 0
-729 147 0
728 729 -147 0
681 730 0
-681 -730 0
730 -731 0
683 -731 0
-730 -683 731 0
681 -732 0
687 -732 0
-681 -687 732 0
-731 148 0
-732 148 0
731 732 -148 0
681 733 0
-681 -733 0
733 -734 0
684 -734 0
-733 -684 734 0
681 -735 0
688 -735 0
-681 -688 735 0
-734 149 0
-735 149 0
734 735 -149 0
681 736 0
-681 -736 0
736 -737 0
685 -737 0
-736 -685 737 0
681 -738 0
689 -738 0
-681 -689 738 0
-737 150 0
-738 150 0
737 738 -150 0
681 739 0
-681 -739 0
739 -740 0
690 -740 0
-739 -690 740 0
681 -741 0
708 -741 0
-681 -708 741 0
-740 726 0
-741 726 0
740 741 -726 0
681 -742 0
724 -742 0
-681 -724 742 0
-742 743 0
-726 743 0
742 726 -743 0
743 789 0
-743 -789 0
789 -790 0
744 -790 0
-789 -744 790 0
743 -791 0
748 -791 0
-743 -748 791 0
-790 151 0
-791 151 0
790 791 -151 0
743 792 0
-743 -792 0
792 -793 0
745 -793 0
-792 -745 793 0
743 -794 0
749 -794 0
-743 -749 794 0
-793 152 0
-794 152 0
793 794 -152 0
743 795 0
-743 -795 0
795 -796 0
746 -796 0
-795 -746 796 0
743 -797 0
750 -797 0
-743 -750 797 0
-796 153 0
-797 153 0
796 797 -153 0
743 798 0
-743 -798 0
798 -799 0
747 -799 0
-798 -747 799 0
743 -800 0
751 -800 0
-743 -751 800 0
-799 154 0
-800 154 0
799 800 -154 0
743 801 0
-743 -801 0
801 -802 0
752 -802 0
-801 -752 802 0
743 -803 0
770 -803 0
-743 -770 803 0
-802 788 0
-803 788 0
802 803 -788 0
743 -804 0
786 -804 0
-743 -786 804 0
-804 805 0
-788 805 0
804 788 -805 0
805 851 0
-805 -851 0
851 -852 0
806 -852 0
-851 -806 852 0
805 -853 0
810 -853 0
-805 -810 853 0
-852 155 0
-853 155 0
852 853 -155 0
805 854 0
-805 -854 0
854 -855 0
807 -855 0
-854 -807 855 0
805 -856 0
811 -856 0
-805 -811 856 0
-855 156 0
-856 156 0
855 856 -156 0
805 857 0
-805 -857 0
857 -858 0
808 -858 0
-857 -808 858 0
805 -859 0
812 -859 0
-805 -812 859 0
-858 157 0
-859 157 0
858 859 -157 0
805 860 0
-805 -860 0
860 -861 0
809 -861 0
-860 -809 861 0
805 -862 0
813 -862 0
-805 -813 862 0
-861 158 0
-862 158 0
861 862 -158 0
805 863 0
-805 -863 0
863 -864 0
814 -864 0
-863 -814 864 0
805 -865 0
832 -865 0
-805 -832 865 0
-864 850 0
-865 850 0
864 865 -850 0
805 -866 0
848 -866 0
-805 -848 866 0
-866 867 0
-850 867 0
866 850 -867 0
867 913 0
-867 -913 0
913 -914 0
868 -914 0
-913 -868 914 0
867 -915 0
872 -915 0
-867 -872 915 0
-914 159 0
-915 159 0
914 915 -159 0
867 916 0
-867 -916 0
916 -917 0
869 -917 0
-916 -869 917 0
867 -918 0
873 -918 0
-867 -873 918 0
-917 160 0
-918 160 0
917 918 -160 0
867 919 0
-867 -919 0
919 -920 0
870 -920 0
-919 -870 920 0
867 -921 0
874 -921 0
-867 -874 921 0
-920 161 0
-921 161 0
920 921 -161 0
867 922 0
-867 -922 0
922 -923 0
871 -923 0
-922 -871 923 0
867 -924 0
875 -924 0
-867 -875 924 0
-923 162 0
-924 162 0
923 924 -162 0
867 925 0
-867 -925 0
925 -926 0
876 -926 0
-925 -876 926 0
867 -927 0
894 -927 0
-867 -894 927 0
-926 912 0
-927 912 0
926 927 -912 0
867 -928 0
910 -928 0
-867 -910 928 0
-928 929 0
-912 929 0
928 912 -929 0
929 965 0
-929 -965 0
965 -966 0
930 -966 0
-965 -930 966 0
929 -967 0
933 -967 0
-929 -933 967 0
-966 163 0
-967 163 0
966 967 -163 0
929 968 0
-929 -968 0
968 -969 0
931 -969 0
-968 -931 969 0
929 -970 0
934 -970 0
-929 -934 970 0
-969 164 0
-970 164 0
969 970 -164 0
929 971 0
-929 -971 0
971 -972 0
932 -972 0
-971 -932 972 0
929 -973 0
935 -973 0
-929 -935 973 0
-972 165 0
-973 165 0
972 973 -165 0
929 974 0
-929 -974 0
974 -975 0
936 -975 0
-974 -936 975 0
929 -976 0
950 -976 0
-929 -950 976 0
-975 964 0
-976 964 0
975 976 -964 0
929 -977 0
962 -977 0
-929 -962 977 0
-977 978 0
-964 978 0
977 964 -978 0
978 -166 0
-978 166 0
